results_rootrelaxation/bin024_050_003.srr.sol
solution status: optimal solution found
objective value:                                    0
_var247_                            0.122239860526894 	(obj:0)
_var2635_                           0.150352962240298 	(obj:0)
_var7015_                          0.0477401745343146 	(obj:0)
_var7034_                           0.328101491227304 	(obj:0)
_var7036_                           0.136488850681233 	(obj:0)
_var7040_                           0.171551189541116 	(obj:0)
_var7046_                           0.147865793694488 	(obj:0)
_var7052_                           0.170622469779118 	(obj:0)
_var7053_                           0.145779214851942 	(obj:0)
_var7062_                          0.0464784236383421 	(obj:0)
_var7074_                           0.190410196092883 	(obj:0)
_var7076_                           0.199244009911602 	(obj:0)
_var7083_                           0.155606799597319 	(obj:0)
_var7088_                          0.0175989817276165 	(obj:0)
_var7089_                           0.168503848166883 	(obj:0)
_var7090_                          0.0264715279580841 	(obj:0)
_var7093_                           0.156027483165407 	(obj:0)
_var7096_                          0.0494512499229949 	(obj:0)
_var7098_                          0.0161531885232019 	(obj:0)
_var7099_                          0.0172800501100366 	(obj:0)
_var7101_                           0.135821710487008 	(obj:0)
_var7102_                           0.146825641463482 	(obj:0)
_var7103_                         0.00356902203367976 	(obj:0)
_var7110_                           0.135699593109571 	(obj:0)
_var7118_                            0.43732949349929 	(obj:0)
_var7121_                          0.0289994235928435 	(obj:0)
_var7127_                          0.0848191109317425 	(obj:0)
_var7129_                           0.115494931514275 	(obj:0)
_var7130_                           0.114629319208875 	(obj:0)
_var7131_                          0.0189621897096527 	(obj:0)
_var7132_                          0.0559369315394472 	(obj:0)
_var7136_                           0.134925020565993 	(obj:0)
_var7137_                         0.00853494112950308 	(obj:0)
_var7139_                           0.166066295890307 	(obj:0)
_var7140_                          0.0409625385138785 	(obj:0)
_var7142_                          0.0725506200723006 	(obj:0)
_var7143_                          0.0202386687126294 	(obj:0)
_var7146_                          0.0385647842148234 	(obj:0)
_var7147_                           0.238567791013611 	(obj:0)
_var7149_                           0.145406389879382 	(obj:0)
_var7155_                           0.201267529864345 	(obj:0)
_var7161_                          0.0709381891545289 	(obj:0)
_var7163_                         0.000519494032382162 	(obj:0)
_var7166_                          0.0667113794974054 	(obj:0)
_var7167_                           0.180727620602225 	(obj:0)
_var7168_                          0.0857331066015343 	(obj:0)
_var7169_                           0.129524940540052 	(obj:0)
_var7178_                           0.068676956342555 	(obj:0)
_var7182_                           0.182481819757125 	(obj:0)
_var7188_                          0.0274344797957298 	(obj:0)
_var7192_                           0.123221770784211 	(obj:0)
_var7197_                           0.138662401502649 	(obj:0)
_var7198_                          0.0324144004198971 	(obj:0)
_var7200_                            0.22519227618035 	(obj:0)
_var7214_                           0.239290276732034 	(obj:0)
_var7215_                           0.143655865945891 	(obj:0)
_var7221_                          0.0775529550671088 	(obj:0)
_var7222_                         0.00659353406399071 	(obj:0)
_var7223_                          0.0468765968631979 	(obj:0)
_var7225_                           0.295488913589415 	(obj:0)
_var7228_                          0.0331744209428659 	(obj:0)
_var7229_                          0.0657948928210717 	(obj:0)
_var7230_                          0.0941747209799474 	(obj:0)
_var7234_                           0.162692823159547 	(obj:0)
_var7236_                          0.0420168356008201 	(obj:0)
_var7238_                          0.0257274164451493 	(obj:0)
_var7247_                           0.039772082882616 	(obj:0)
_var7249_                           0.211468413210541 	(obj:0)
_var7250_                         0.00102595546105744 	(obj:0)
_var7251_                          0.0482752193488088 	(obj:0)
_var7253_                         0.00943621330750335 	(obj:0)
_var7255_                          0.0566331683376057 	(obj:0)
_var7256_                           0.133880988646778 	(obj:0)
_var7258_                          0.0627905195773543 	(obj:0)
_var7261_                           0.176375668926225 	(obj:0)
_var7264_                            0.18201185253732 	(obj:0)
_var7265_                           0.177223750510335 	(obj:0)
_var7271_                          0.0991935255127641 	(obj:0)
_var7275_                           0.131153149524772 	(obj:0)
_var7276_                           0.204318568394337 	(obj:0)
_var7281_                          0.0543284493063787 	(obj:0)
_var7290_                          0.0880766678067227 	(obj:0)
_var7295_                           0.154111278624894 	(obj:0)
_var7299_                          0.0902734780051089 	(obj:0)
_var7300_                          0.0113496704169148 	(obj:0)
_var7301_                          0.0244561629181524 	(obj:0)
_var7303_                           0.122112132158689 	(obj:0)
_var7304_                          0.0170568338571784 	(obj:0)
_var7305_                           0.110856152546267 	(obj:0)
_var7309_                           0.297001783635179 	(obj:0)
_var7310_                          0.0553706498893757 	(obj:0)
_var7312_                          0.0755339689623149 	(obj:0)
_var7316_                          0.0689971211987254 	(obj:0)
_var7318_                           0.132476420420105 	(obj:0)
_var7320_                          0.0403489012282267 	(obj:0)
_var7324_                           0.173285069046882 	(obj:0)
_var7326_                           0.105443050392751 	(obj:0)
_var7331_                           0.141667198468385 	(obj:0)
_var7333_                           0.196810559183428 	(obj:0)
_var7334_                            0.22028714748386 	(obj:0)
_var7335_                          0.0159381558268929 	(obj:0)
_var7338_                          0.0869032444385975 	(obj:0)
_var7339_                             0.1634224138775 	(obj:0)
_var7342_                           0.328127804485907 	(obj:0)
_var7343_                          0.0948417377797745 	(obj:0)
_var7347_                          0.0251357435634963 	(obj:0)
_var7349_                          0.0463636338202133 	(obj:0)
_var7352_                           0.123974367705775 	(obj:0)
_var7357_                         0.00958594246592011 	(obj:0)
_var7358_                           0.142199854645175 	(obj:0)
_var7359_                            0.30956340743503 	(obj:0)
_var7360_                           0.116025846209658 	(obj:0)
_var7362_                          0.0107678955259998 	(obj:0)
_var7363_                          0.0037544679967319 	(obj:0)
_var7364_                          0.0800768134856873 	(obj:0)
_var7366_                          0.0131692266791857 	(obj:0)
_var7367_                          0.0959386800853765 	(obj:0)
_var7370_                          0.0813794488034885 	(obj:0)
_var7371_                          0.0316922574808995 	(obj:0)
_var7372_                          0.0414665788194554 	(obj:0)
_var7373_                          0.0519196012050233 	(obj:0)
_var7375_                          0.0310764528156755 	(obj:0)
_var7377_                          0.0883980867596214 	(obj:0)
_var7380_                           0.231428675668094 	(obj:0)
_var7383_                          0.0258998817994328 	(obj:0)
_var7384_                          0.0366680899960585 	(obj:0)
_var7386_                          0.0175275584268858 	(obj:0)
_var7388_                           0.129899969304346 	(obj:0)
_var7390_                          0.0704196950437535 	(obj:0)
_var7391_                           0.105760433897279 	(obj:0)
_var7392_                           0.247645014027476 	(obj:0)
_var7393_                          0.0827451454074664 	(obj:0)
_var7394_                          0.0983794602466612 	(obj:0)
_var7395_                          0.0875455636584646 	(obj:0)
_var7397_                          0.0819957820918475 	(obj:0)
_var7400_                          0.0590853683502964 	(obj:0)
_var7405_                           0.163227276016755 	(obj:0)
_var7406_                           0.183269926555906 	(obj:0)
_var7413_                           0.038494677200144 	(obj:0)
_var7414_                         0.00916147284205718 	(obj:0)
_var7415_                           0.105861009208519 	(obj:0)
_var7416_                          0.0335888168502969 	(obj:0)
_var7418_                           0.104773726911526 	(obj:0)
_var7419_                          0.0393009885284561 	(obj:0)
_var7420_                          0.0830697523306641 	(obj:0)
_var7422_                          0.0576924244844012 	(obj:0)
_var7423_                           0.120485026727605 	(obj:0)
_var7426_                          0.0790428892079193 	(obj:0)
_var7427_                           0.185238358178481 	(obj:0)
_var7430_                          0.0518900307144316 	(obj:0)
_var7431_                          0.0257673097108079 	(obj:0)
_var7432_                           0.172040589599319 	(obj:0)
_var7433_                          0.0611370187992468 	(obj:0)
_var7435_                          0.0014216451680651 	(obj:0)
_var7437_                          0.0130062650165398 	(obj:0)
_var7438_                          0.0183512657440781 	(obj:0)
_var7439_                           0.130293279226288 	(obj:0)
_var7440_                          0.0475354236737019 	(obj:0)
_var7441_                          0.0259269524036785 	(obj:0)
_var7442_                          0.0464626493384085 	(obj:0)
_var7443_                          0.0682021874003389 	(obj:0)
_var7445_                           0.198220871194989 	(obj:0)
_var7448_                          0.0112824327795486 	(obj:0)
_var7449_                          0.0816965484774452 	(obj:0)
_var7452_                           0.168774437861289 	(obj:0)
_var7455_                           0.102600374177917 	(obj:0)
_var7456_                           0.114708255222755 	(obj:0)
_var7458_                           0.167669873037801 	(obj:0)
_var7460_                          0.0949856139119331 	(obj:0)
_var7462_                          0.0763988150843813 	(obj:0)
_var7464_                          0.0134742616296338 	(obj:0)
_var7465_                          0.0135071828016242 	(obj:0)
_var7466_                           0.106062742571981 	(obj:0)
_var7468_                          0.0534027168415512 	(obj:0)
_var7477_                          0.0821738588526622 	(obj:0)
_var7480_                          0.0151932028937345 	(obj:0)
_var7481_                           0.127403349033712 	(obj:0)
_var7484_                           0.094735964352554 	(obj:0)
_var7485_                          0.0673640145737769 	(obj:0)
_var7486_                          0.0722866129371627 	(obj:0)
_var7488_                          0.0712479790849291 	(obj:0)
_var7489_                          0.0552722278200688 	(obj:0)
_var7493_                          0.0556658547002283 	(obj:0)
_var7494_                            0.07642397089646 	(obj:0)
_var7495_                         0.00403921932517412 	(obj:0)
_var7496_                           0.106703978598382 	(obj:0)
_var7498_                          0.0220991694082419 	(obj:0)
_var7499_                           0.110714698577057 	(obj:0)
_var7502_                          0.0114091584016879 	(obj:0)
_var7503_                           0.110519941357805 	(obj:0)
_var7504_                          0.0735582503452869 	(obj:0)
_var7505_                          0.0930754498916316 	(obj:0)
_var7506_                          0.0262771055820874 	(obj:0)
_var7511_                          0.0611075360928143 	(obj:0)
_var7512_                          0.0420172286471605 	(obj:0)
_var7514_                          0.0171446357953835 	(obj:0)
_var7516_                            0.12515753221521 	(obj:0)
_var7518_                          0.0656081665324495 	(obj:0)
_var7519_                          0.0232524524012393 	(obj:0)
_var7520_                         0.00791293709021034 	(obj:0)
_var7521_                         0.00184877426522714 	(obj:0)
_var7522_                           0.124613137163502 	(obj:0)
_var7524_                          0.0256511656126449 	(obj:0)
_var7525_                           0.110675194226426 	(obj:0)
_var7527_                          0.0562590081550712 	(obj:0)
_var7528_                           0.211019010799156 	(obj:0)
_var7529_                         0.000932727792176846 	(obj:0)
_var7530_                          0.0884854748935037 	(obj:0)
_var7532_                           0.059144467562987 	(obj:0)
_var7533_                          0.0646697652968282 	(obj:0)
_var7536_                           0.157622521271401 	(obj:0)
_var7538_                         0.00724792126149737 	(obj:0)
_var7544_                            0.16089514084586 	(obj:0)
_var7545_                         0.00338247667062436 	(obj:0)
_var7547_                          0.0522397313737082 	(obj:0)
_var7548_                          0.0810982605903829 	(obj:0)
_var7551_                          0.0930823456237793 	(obj:0)
_var7555_                          0.0385566860379531 	(obj:0)
_var7557_                          0.0510545859302133 	(obj:0)
_var7561_                          0.0211520741885943 	(obj:0)
_var7562_                           0.150058909609141 	(obj:0)
_var7564_                          0.0216577081322688 	(obj:0)
_var7565_                         0.000166622531043825 	(obj:0)
_var7568_                         0.00133123536074785 	(obj:0)
_var7569_                          0.0583958719943076 	(obj:0)
_var7570_                           0.024886998358731 	(obj:0)
_var7572_                          0.0304285137874867 	(obj:0)
_var7575_                          0.0124294695468657 	(obj:0)
_var7578_                          0.0522524843037023 	(obj:0)
_var7579_                          0.0637492539956193 	(obj:0)
_var7580_                          0.0106505097976531 	(obj:0)
_var7581_                          0.0140043884934636 	(obj:0)
_var7583_                          0.0364689048273234 	(obj:0)
_var7584_                          0.0466199739069353 	(obj:0)
_var7585_                           0.145755741503021 	(obj:0)
_var7587_                          0.0140900427712503 	(obj:0)
_var7588_                           0.115368016409948 	(obj:0)
_var7589_                          0.0168570715565706 	(obj:0)
_var7590_                          0.0142996044405087 	(obj:0)
_var7591_                           0.177983546489132 	(obj:0)
_var7592_                          0.0159604818511147 	(obj:0)
_var7593_                          0.0295859765112353 	(obj:0)
_var7594_                         0.00316565128092136 	(obj:0)
_var7595_                           0.201536591262984 	(obj:0)
_var7597_                          0.0514331354524789 	(obj:0)
_var7600_                          0.0944584181636287 	(obj:0)
_var7603_                          0.0317408734485382 	(obj:0)
_var7607_                          0.0122252355356062 	(obj:0)
_var7610_                         0.00696109959395689 	(obj:0)
_var7611_                          0.0604473402626352 	(obj:0)
_var7612_                          0.0332935534961113 	(obj:0)
_var7614_                          0.0466943917260007 	(obj:0)
_var7616_                          0.0413311057310776 	(obj:0)
_var7618_                           0.014764173279788 	(obj:0)
_var7620_                           0.141054022428339 	(obj:0)
_var7621_                          0.0237602222982585 	(obj:0)
_var7622_                           0.111477822301241 	(obj:0)
_var7626_                          0.0575793857532305 	(obj:0)
_var7636_                          0.0887798473898774 	(obj:0)
_var7637_                          0.0223096624723116 	(obj:0)
_var7638_                          0.0373103568188037 	(obj:0)
_var7640_                         0.00340435373506631 	(obj:0)
_var7644_                          0.0966797255768833 	(obj:0)
_var7646_                           0.112779885478266 	(obj:0)
_var7647_                          0.0289421256108646 	(obj:0)
_var7648_                           0.011541755195494 	(obj:0)
_var7649_                         0.00353969873498668 	(obj:0)
_var7654_                          0.0372523592974097 	(obj:0)
_var7656_                         0.00355969889958584 	(obj:0)
_var7659_                          0.0491443434168187 	(obj:0)
_var7663_                           0.018670200274682 	(obj:0)
_var7671_                         0.00080415276707467 	(obj:0)
_var7676_                         0.00648975277394688 	(obj:0)
_var7677_                          0.0422821775763275 	(obj:0)
_var7678_                         0.00102363157350105 	(obj:0)
